20 47 105
1 3 2
1 7 1
1 13 4
1 14 3
1 17 2
2 5 1
2 6 4
2 8 5
2 12 3
2 16 1
3 5 1
3 7 3
3 9 1
3 13 4
4 5 4
4 6 4
4 10 3
4 14 4
4 16 2
4 18 2
5 10 2
5 13 5
5 14 4
5 16 2
5 19 2
5 20 5
6 12 5
6 16 5
6 18 2
7 10 5
8 9 1
8 11 2
8 17 3
8 15 3
9 11 3
9 13 1
9 18 1
10 18 1
12 14 1
12 17 5
12 18 3
13 17 3
13 18 3
14 17 2
14 20 1
17 19 5
18 20 1
